unknown
(model
; cardinality of BoundSet is 1
(declare-sort BoundSet 0)
; rep: @uc_BoundSet_0
; cardinality of UnboundSet is 1
(declare-sort UnboundSet 0)
(declare-fun groundTerm_2 () UnboundSet)
(define-fun IsCrowded ((BOUND_VARIABLE_414 BoundSet)) Bool true)
(define-fun HasPeople ((BOUND_VARIABLE_414 BoundSet)) Bool true)
(define-fun IsStandingNextTo ((BOUND_VARIABLE_426 BoundSet) (BOUND_VARIABLE_427 BoundSet)) Bool false)
(define-fun IsOnFreightCar ((BOUND_VARIABLE_414 BoundSet)) Bool false)
)
sat
(model
; cardinality of BoundSet is 1
(declare-sort BoundSet 0)
; rep: @uc_BoundSet_0
; cardinality of UnboundSet is 1
(declare-sort UnboundSet 0)
(declare-fun groundTerm_5 () UnboundSet)
(define-fun IsCrowded ((BOUND_VARIABLE_450 BoundSet)) Bool true)
(define-fun HasPeople ((BOUND_VARIABLE_450 BoundSet)) Bool true)
(define-fun IsStandingNextTo ((BOUND_VARIABLE_458 BoundSet) (BOUND_VARIABLE_459 BoundSet)) Bool false)
(define-fun IsOnFreightCar ((BOUND_VARIABLE_450 BoundSet)) Bool true)
)
